# Solution for model Dominos model
# Objective value = 9.3394576432064176e+06
OpenMill(Ardent1) 0
Shipment(Ardent1,DC1) 0
Shipment(Ardent1,DC10) 0
Shipment(Ardent1,DC11) 0
Shipment(Ardent1,DC12) 0
Shipment(Ardent1,DC13) 0
Shipment(Ardent1,DC14) 0
Shipment(Ardent1,DC15) 0
Shipment(Ardent1,DC16) 0
Shipment(Ardent1,DC2) 0
Shipment(Ardent1,DC3) 0
Shipment(Ardent1,DC4) 0
Shipment(Ardent1,DC5) 0
Shipment(Ardent1,DC6) 0
Shipment(Ardent1,DC7) 0
Shipment(Ardent1,DC8) 0
Shipment(Ardent1,DC9) 0
OpenMill(Ardent2) 1
Shipment(Ardent2,DC1) 0
Shipment(Ardent2,DC10) 0
Shipment(Ardent2,DC11) 0
Shipment(Ardent2,DC12) 0
Shipment(Ardent2,DC13) 1
Shipment(Ardent2,DC14) 0
Shipment(Ardent2,DC15) 0
Shipment(Ardent2,DC16) 1
Shipment(Ardent2,DC2) 0
Shipment(Ardent2,DC3) 0
Shipment(Ardent2,DC4) 0
Shipment(Ardent2,DC5) 0
Shipment(Ardent2,DC6) 0
Shipment(Ardent2,DC7) 0
Shipment(Ardent2,DC8) 0
Shipment(Ardent2,DC9) 0
OpenMill(Ardent3) 0
Shipment(Ardent3,DC1) 0
Shipment(Ardent3,DC10) 0
Shipment(Ardent3,DC11) 0
Shipment(Ardent3,DC12) 0
Shipment(Ardent3,DC13) 0
Shipment(Ardent3,DC14) 0
Shipment(Ardent3,DC15) 0
Shipment(Ardent3,DC16) 0
Shipment(Ardent3,DC2) 0
Shipment(Ardent3,DC3) 0
Shipment(Ardent3,DC4) 0
Shipment(Ardent3,DC5) 0
Shipment(Ardent3,DC6) 0
Shipment(Ardent3,DC7) 0
Shipment(Ardent3,DC8) 0
Shipment(Ardent3,DC9) 0
OpenMill(Ardent4) 0
Shipment(Ardent4,DC1) 0
Shipment(Ardent4,DC10) 0
Shipment(Ardent4,DC11) 0
Shipment(Ardent4,DC12) 0
Shipment(Ardent4,DC13) 0
Shipment(Ardent4,DC14) 0
Shipment(Ardent4,DC15) 0
Shipment(Ardent4,DC16) 0
Shipment(Ardent4,DC2) 0
Shipment(Ardent4,DC3) 0
Shipment(Ardent4,DC4) 0
Shipment(Ardent4,DC5) 0
Shipment(Ardent4,DC6) 0
Shipment(Ardent4,DC7) 0
Shipment(Ardent4,DC8) 0
Shipment(Ardent4,DC9) 0
OpenMill(Ardent5) 0
Shipment(Ardent5,DC1) 0
Shipment(Ardent5,DC10) 0
Shipment(Ardent5,DC11) 0
Shipment(Ardent5,DC12) 0
Shipment(Ardent5,DC13) 0
Shipment(Ardent5,DC14) 0
Shipment(Ardent5,DC15) 0
Shipment(Ardent5,DC16) 0
Shipment(Ardent5,DC2) 0
Shipment(Ardent5,DC3) 0
Shipment(Ardent5,DC4) 0
Shipment(Ardent5,DC5) 0
Shipment(Ardent5,DC6) 0
Shipment(Ardent5,DC7) 0
Shipment(Ardent5,DC8) 0
Shipment(Ardent5,DC9) 0
OpenMill(Ardent6) 0
Shipment(Ardent6,DC1) 0
Shipment(Ardent6,DC10) 0
Shipment(Ardent6,DC11) 0
Shipment(Ardent6,DC12) 0
Shipment(Ardent6,DC13) 0
Shipment(Ardent6,DC14) 0
Shipment(Ardent6,DC15) 0
Shipment(Ardent6,DC16) 0
Shipment(Ardent6,DC2) 0
Shipment(Ardent6,DC3) 0
Shipment(Ardent6,DC4) 0
Shipment(Ardent6,DC5) 0
Shipment(Ardent6,DC6) 0
Shipment(Ardent6,DC7) 0
Shipment(Ardent6,DC8) 0
Shipment(Ardent6,DC9) 0
OpenMill(Ardent7) 0
Shipment(Ardent7,DC1) 0
Shipment(Ardent7,DC10) 0
Shipment(Ardent7,DC11) 0
Shipment(Ardent7,DC12) 0
Shipment(Ardent7,DC13) 0
Shipment(Ardent7,DC14) 0
Shipment(Ardent7,DC15) 0
Shipment(Ardent7,DC16) 0
Shipment(Ardent7,DC2) 0
Shipment(Ardent7,DC3) 0
Shipment(Ardent7,DC4) 0
Shipment(Ardent7,DC5) 0
Shipment(Ardent7,DC6) 0
Shipment(Ardent7,DC7) 0
Shipment(Ardent7,DC8) 0
Shipment(Ardent7,DC9) 0
OpenMill(Ardent8) 0
Shipment(Ardent8,DC1) 0
Shipment(Ardent8,DC10) 0
Shipment(Ardent8,DC11) 0
Shipment(Ardent8,DC12) 0
Shipment(Ardent8,DC13) 0
Shipment(Ardent8,DC14) 0
Shipment(Ardent8,DC15) 0
Shipment(Ardent8,DC16) 0
Shipment(Ardent8,DC2) 0
Shipment(Ardent8,DC3) 0
Shipment(Ardent8,DC4) 0
Shipment(Ardent8,DC5) 0
Shipment(Ardent8,DC6) 0
Shipment(Ardent8,DC7) 0
Shipment(Ardent8,DC8) 0
Shipment(Ardent8,DC9) 0
OpenMill(Ardent9) 0
Shipment(Ardent9,DC1) 0
Shipment(Ardent9,DC10) 0
Shipment(Ardent9,DC11) 0
Shipment(Ardent9,DC12) 0
Shipment(Ardent9,DC13) 0
Shipment(Ardent9,DC14) 0
Shipment(Ardent9,DC15) 0
Shipment(Ardent9,DC16) 0
Shipment(Ardent9,DC2) 0
Shipment(Ardent9,DC3) 0
Shipment(Ardent9,DC4) 0
Shipment(Ardent9,DC5) 0
Shipment(Ardent9,DC6) 0
Shipment(Ardent9,DC7) 0
Shipment(Ardent9,DC8) 0
Shipment(Ardent9,DC9) 0
OpenMill(Ardent10) 0
Shipment(Ardent10,DC1) 0
Shipment(Ardent10,DC10) 0
Shipment(Ardent10,DC11) 0
Shipment(Ardent10,DC12) 0
Shipment(Ardent10,DC13) 0
Shipment(Ardent10,DC14) 0
Shipment(Ardent10,DC15) 0
Shipment(Ardent10,DC16) 0
Shipment(Ardent10,DC2) 0
Shipment(Ardent10,DC3) 0
Shipment(Ardent10,DC4) 0
Shipment(Ardent10,DC5) 0
Shipment(Ardent10,DC6) 0
Shipment(Ardent10,DC7) 0
Shipment(Ardent10,DC8) 0
Shipment(Ardent10,DC9) 0
OpenMill(Ardent11) 0
Shipment(Ardent11,DC1) 0
Shipment(Ardent11,DC10) 0
Shipment(Ardent11,DC11) 0
Shipment(Ardent11,DC12) 0
Shipment(Ardent11,DC13) 0
Shipment(Ardent11,DC14) 0
Shipment(Ardent11,DC15) 0
Shipment(Ardent11,DC16) 0
Shipment(Ardent11,DC2) 0
Shipment(Ardent11,DC3) 0
Shipment(Ardent11,DC4) 0
Shipment(Ardent11,DC5) 0
Shipment(Ardent11,DC6) 0
Shipment(Ardent11,DC7) 0
Shipment(Ardent11,DC8) 0
Shipment(Ardent11,DC9) 0
OpenMill(Ardent12) 0
Shipment(Ardent12,DC1) 0
Shipment(Ardent12,DC10) 0
Shipment(Ardent12,DC11) 0
Shipment(Ardent12,DC12) 0
Shipment(Ardent12,DC13) 0
Shipment(Ardent12,DC14) 0
Shipment(Ardent12,DC15) 0
Shipment(Ardent12,DC16) 0
Shipment(Ardent12,DC2) 0
Shipment(Ardent12,DC3) 0
Shipment(Ardent12,DC4) 0
Shipment(Ardent12,DC5) 0
Shipment(Ardent12,DC6) 0
Shipment(Ardent12,DC7) 0
Shipment(Ardent12,DC8) 0
Shipment(Ardent12,DC9) 0
OpenMill(Ardent13) 0
Shipment(Ardent13,DC1) 0
Shipment(Ardent13,DC10) 0
Shipment(Ardent13,DC11) 0
Shipment(Ardent13,DC12) 0
Shipment(Ardent13,DC13) 0
Shipment(Ardent13,DC14) 0
Shipment(Ardent13,DC15) 0
Shipment(Ardent13,DC16) 0
Shipment(Ardent13,DC2) 0
Shipment(Ardent13,DC3) 0
Shipment(Ardent13,DC4) 0
Shipment(Ardent13,DC5) 0
Shipment(Ardent13,DC6) 0
Shipment(Ardent13,DC7) 0
Shipment(Ardent13,DC8) 0
Shipment(Ardent13,DC9) 0
OpenMill(Ardent14) 0
Shipment(Ardent14,DC1) 0
Shipment(Ardent14,DC10) 0
Shipment(Ardent14,DC11) 0
Shipment(Ardent14,DC12) 0
Shipment(Ardent14,DC13) 0
Shipment(Ardent14,DC14) 0
Shipment(Ardent14,DC15) 0
Shipment(Ardent14,DC16) 0
Shipment(Ardent14,DC2) 0
Shipment(Ardent14,DC3) 0
Shipment(Ardent14,DC4) 0
Shipment(Ardent14,DC5) 0
Shipment(Ardent14,DC6) 0
Shipment(Ardent14,DC7) 0
Shipment(Ardent14,DC8) 0
Shipment(Ardent14,DC9) 0
OpenMill(Ardent15) 0
Shipment(Ardent15,DC1) 0
Shipment(Ardent15,DC10) 0
Shipment(Ardent15,DC11) 0
Shipment(Ardent15,DC12) 0
Shipment(Ardent15,DC13) 0
Shipment(Ardent15,DC14) 0
Shipment(Ardent15,DC15) 0
Shipment(Ardent15,DC16) 0
Shipment(Ardent15,DC2) 0
Shipment(Ardent15,DC3) 0
Shipment(Ardent15,DC4) 0
Shipment(Ardent15,DC5) 0
Shipment(Ardent15,DC6) 0
Shipment(Ardent15,DC7) 0
Shipment(Ardent15,DC8) 0
Shipment(Ardent15,DC9) 0
OpenMill(Ardent16) 0
Shipment(Ardent16,DC1) 0
Shipment(Ardent16,DC10) 0
Shipment(Ardent16,DC11) 0
Shipment(Ardent16,DC12) 0
Shipment(Ardent16,DC13) 0
Shipment(Ardent16,DC14) 0
Shipment(Ardent16,DC15) 0
Shipment(Ardent16,DC16) 0
Shipment(Ardent16,DC2) 0
Shipment(Ardent16,DC3) 0
Shipment(Ardent16,DC4) 0
Shipment(Ardent16,DC5) 0
Shipment(Ardent16,DC6) 0
Shipment(Ardent16,DC7) 0
Shipment(Ardent16,DC8) 0
Shipment(Ardent16,DC9) 0
OpenMill(Ardent17) 1
Shipment(Ardent17,DC1) 0
Shipment(Ardent17,DC10) 1
Shipment(Ardent17,DC11) 0
Shipment(Ardent17,DC12) 0
Shipment(Ardent17,DC13) 0
Shipment(Ardent17,DC14) 0
Shipment(Ardent17,DC15) 0
Shipment(Ardent17,DC16) 0
Shipment(Ardent17,DC2) 0
Shipment(Ardent17,DC3) 0
Shipment(Ardent17,DC4) 0
Shipment(Ardent17,DC5) 0
Shipment(Ardent17,DC6) 0
Shipment(Ardent17,DC7) 0
Shipment(Ardent17,DC8) 1
Shipment(Ardent17,DC9) 0
OpenMill(Ardent18) 0
Shipment(Ardent18,DC1) 0
Shipment(Ardent18,DC10) 0
Shipment(Ardent18,DC11) 0
Shipment(Ardent18,DC12) 0
Shipment(Ardent18,DC13) 0
Shipment(Ardent18,DC14) 0
Shipment(Ardent18,DC15) 0
Shipment(Ardent18,DC16) 0
Shipment(Ardent18,DC2) 0
Shipment(Ardent18,DC3) 0
Shipment(Ardent18,DC4) 0
Shipment(Ardent18,DC5) 0
Shipment(Ardent18,DC6) 0
Shipment(Ardent18,DC7) 0
Shipment(Ardent18,DC8) 0
Shipment(Ardent18,DC9) 0
OpenMill(Ardent19) 0
Shipment(Ardent19,DC1) 0
Shipment(Ardent19,DC10) 0
Shipment(Ardent19,DC11) 0
Shipment(Ardent19,DC12) 0
Shipment(Ardent19,DC13) 0
Shipment(Ardent19,DC14) 0
Shipment(Ardent19,DC15) 0
Shipment(Ardent19,DC16) 0
Shipment(Ardent19,DC2) 0
Shipment(Ardent19,DC3) 0
Shipment(Ardent19,DC4) 0
Shipment(Ardent19,DC5) 0
Shipment(Ardent19,DC6) 0
Shipment(Ardent19,DC7) 0
Shipment(Ardent19,DC8) 0
Shipment(Ardent19,DC9) 0
OpenMill(Ardent20) 1
Shipment(Ardent20,DC1) 0
Shipment(Ardent20,DC10) 0
Shipment(Ardent20,DC11) 0
Shipment(Ardent20,DC12) 0
Shipment(Ardent20,DC13) 0
Shipment(Ardent20,DC14) 0
Shipment(Ardent20,DC15) 0
Shipment(Ardent20,DC16) 0
Shipment(Ardent20,DC2) 0
Shipment(Ardent20,DC3) 0
Shipment(Ardent20,DC4) 0
Shipment(Ardent20,DC5) 0
Shipment(Ardent20,DC6) 0
Shipment(Ardent20,DC7) 1
Shipment(Ardent20,DC8) 0
Shipment(Ardent20,DC9) 0
OpenMill(Ardent21) 0
Shipment(Ardent21,DC1) 0
Shipment(Ardent21,DC10) 0
Shipment(Ardent21,DC11) 0
Shipment(Ardent21,DC12) 0
Shipment(Ardent21,DC13) 0
Shipment(Ardent21,DC14) 0
Shipment(Ardent21,DC15) 0
Shipment(Ardent21,DC16) 0
Shipment(Ardent21,DC2) 0
Shipment(Ardent21,DC3) 0
Shipment(Ardent21,DC4) 0
Shipment(Ardent21,DC5) 0
Shipment(Ardent21,DC6) 0
Shipment(Ardent21,DC7) 0
Shipment(Ardent21,DC8) 0
Shipment(Ardent21,DC9) 0
OpenMill(Ardent22) 0
Shipment(Ardent22,DC1) 0
Shipment(Ardent22,DC10) 0
Shipment(Ardent22,DC11) 0
Shipment(Ardent22,DC12) 0
Shipment(Ardent22,DC13) 0
Shipment(Ardent22,DC14) 0
Shipment(Ardent22,DC15) 0
Shipment(Ardent22,DC16) 0
Shipment(Ardent22,DC2) 0
Shipment(Ardent22,DC3) 0
Shipment(Ardent22,DC4) 0
Shipment(Ardent22,DC5) 0
Shipment(Ardent22,DC6) 0
Shipment(Ardent22,DC7) 0
Shipment(Ardent22,DC8) 0
Shipment(Ardent22,DC9) 0
OpenMill(Ardent23) 0
Shipment(Ardent23,DC1) 0
Shipment(Ardent23,DC10) 0
Shipment(Ardent23,DC11) 0
Shipment(Ardent23,DC12) 0
Shipment(Ardent23,DC13) 0
Shipment(Ardent23,DC14) 0
Shipment(Ardent23,DC15) 0
Shipment(Ardent23,DC16) 0
Shipment(Ardent23,DC2) 0
Shipment(Ardent23,DC3) 0
Shipment(Ardent23,DC4) 0
Shipment(Ardent23,DC5) 0
Shipment(Ardent23,DC6) 0
Shipment(Ardent23,DC7) 0
Shipment(Ardent23,DC8) 0
Shipment(Ardent23,DC9) 0
OpenMill(Ardent24) 0
Shipment(Ardent24,DC1) 0
Shipment(Ardent24,DC10) 0
Shipment(Ardent24,DC11) 0
Shipment(Ardent24,DC12) 0
Shipment(Ardent24,DC13) 0
Shipment(Ardent24,DC14) 0
Shipment(Ardent24,DC15) 0
Shipment(Ardent24,DC16) 0
Shipment(Ardent24,DC2) 0
Shipment(Ardent24,DC3) 0
Shipment(Ardent24,DC4) 0
Shipment(Ardent24,DC5) 0
Shipment(Ardent24,DC6) 0
Shipment(Ardent24,DC7) 0
Shipment(Ardent24,DC8) 0
Shipment(Ardent24,DC9) 0
OpenMill(Ardent25) 0
Shipment(Ardent25,DC1) 0
Shipment(Ardent25,DC10) 0
Shipment(Ardent25,DC11) 0
Shipment(Ardent25,DC12) 0
Shipment(Ardent25,DC13) 0
Shipment(Ardent25,DC14) 0
Shipment(Ardent25,DC15) 0
Shipment(Ardent25,DC16) 0
Shipment(Ardent25,DC2) 0
Shipment(Ardent25,DC3) 0
Shipment(Ardent25,DC4) 0
Shipment(Ardent25,DC5) 0
Shipment(Ardent25,DC6) 0
Shipment(Ardent25,DC7) 0
Shipment(Ardent25,DC8) 0
Shipment(Ardent25,DC9) 0
OpenMill(Ardent26) 1
Shipment(Ardent26,DC1) 0
Shipment(Ardent26,DC10) 0
Shipment(Ardent26,DC11) 1
Shipment(Ardent26,DC12) 0
Shipment(Ardent26,DC13) 0
Shipment(Ardent26,DC14) 0
Shipment(Ardent26,DC15) 0
Shipment(Ardent26,DC16) 0
Shipment(Ardent26,DC2) 1
Shipment(Ardent26,DC3) 0
Shipment(Ardent26,DC4) 0
Shipment(Ardent26,DC5) 0
Shipment(Ardent26,DC6) 0
Shipment(Ardent26,DC7) 0
Shipment(Ardent26,DC8) 0
Shipment(Ardent26,DC9) 0
OpenMill(Ardent27) 0
Shipment(Ardent27,DC1) 0
Shipment(Ardent27,DC10) 0
Shipment(Ardent27,DC11) 0
Shipment(Ardent27,DC12) 0
Shipment(Ardent27,DC13) 0
Shipment(Ardent27,DC14) 0
Shipment(Ardent27,DC15) 0
Shipment(Ardent27,DC16) 0
Shipment(Ardent27,DC2) 0
Shipment(Ardent27,DC3) 0
Shipment(Ardent27,DC4) 0
Shipment(Ardent27,DC5) 0
Shipment(Ardent27,DC6) 0
Shipment(Ardent27,DC7) 0
Shipment(Ardent27,DC8) 0
Shipment(Ardent27,DC9) 0
OpenMill(Ardent28) 0
Shipment(Ardent28,DC1) 0
Shipment(Ardent28,DC10) 0
Shipment(Ardent28,DC11) 0
Shipment(Ardent28,DC12) 0
Shipment(Ardent28,DC13) 0
Shipment(Ardent28,DC14) 0
Shipment(Ardent28,DC15) 0
Shipment(Ardent28,DC16) 0
Shipment(Ardent28,DC2) 0
Shipment(Ardent28,DC3) 0
Shipment(Ardent28,DC4) 0
Shipment(Ardent28,DC5) 0
Shipment(Ardent28,DC6) 0
Shipment(Ardent28,DC7) 0
Shipment(Ardent28,DC8) 0
Shipment(Ardent28,DC9) 0
OpenMill(Ardent29) 1
Shipment(Ardent29,DC1) 0
Shipment(Ardent29,DC10) 0
Shipment(Ardent29,DC11) 0
Shipment(Ardent29,DC12) 0
Shipment(Ardent29,DC13) 0
Shipment(Ardent29,DC14) 0
Shipment(Ardent29,DC15) 0
Shipment(Ardent29,DC16) 0
Shipment(Ardent29,DC2) 0
Shipment(Ardent29,DC3) 0
Shipment(Ardent29,DC4) 0
Shipment(Ardent29,DC5) 0
Shipment(Ardent29,DC6) 1
Shipment(Ardent29,DC7) 0
Shipment(Ardent29,DC8) 0
Shipment(Ardent29,DC9) 0
OpenMill(Ardent30) 0
Shipment(Ardent30,DC1) 0
Shipment(Ardent30,DC10) 0
Shipment(Ardent30,DC11) 0
Shipment(Ardent30,DC12) 0
Shipment(Ardent30,DC13) 0
Shipment(Ardent30,DC14) 0
Shipment(Ardent30,DC15) 0
Shipment(Ardent30,DC16) 0
Shipment(Ardent30,DC2) 0
Shipment(Ardent30,DC3) 0
Shipment(Ardent30,DC4) 0
Shipment(Ardent30,DC5) 0
Shipment(Ardent30,DC6) 0
Shipment(Ardent30,DC7) 0
Shipment(Ardent30,DC8) 0
Shipment(Ardent30,DC9) 0
OpenMill(Ardent31) 0
Shipment(Ardent31,DC1) 0
Shipment(Ardent31,DC10) 0
Shipment(Ardent31,DC11) 0
Shipment(Ardent31,DC12) 0
Shipment(Ardent31,DC13) 0
Shipment(Ardent31,DC14) 0
Shipment(Ardent31,DC15) 0
Shipment(Ardent31,DC16) 0
Shipment(Ardent31,DC2) 0
Shipment(Ardent31,DC3) 0
Shipment(Ardent31,DC4) 0
Shipment(Ardent31,DC5) 0
Shipment(Ardent31,DC6) 0
Shipment(Ardent31,DC7) 0
Shipment(Ardent31,DC8) 0
Shipment(Ardent31,DC9) 0
OpenMill(Ardent32) 0
Shipment(Ardent32,DC1) 0
Shipment(Ardent32,DC10) 0
Shipment(Ardent32,DC11) 0
Shipment(Ardent32,DC12) 0
Shipment(Ardent32,DC13) 0
Shipment(Ardent32,DC14) 0
Shipment(Ardent32,DC15) 0
Shipment(Ardent32,DC16) 0
Shipment(Ardent32,DC2) 0
Shipment(Ardent32,DC3) 0
Shipment(Ardent32,DC4) 0
Shipment(Ardent32,DC5) 0
Shipment(Ardent32,DC6) 0
Shipment(Ardent32,DC7) 0
Shipment(Ardent32,DC8) 0
Shipment(Ardent32,DC9) 0
OpenMill(Ardent33) 1
Shipment(Ardent33,DC1) 1
Shipment(Ardent33,DC10) 0
Shipment(Ardent33,DC11) 0
Shipment(Ardent33,DC12) 0
Shipment(Ardent33,DC13) 0
Shipment(Ardent33,DC14) 0
Shipment(Ardent33,DC15) 0
Shipment(Ardent33,DC16) 0
Shipment(Ardent33,DC2) 0
Shipment(Ardent33,DC3) 0
Shipment(Ardent33,DC4) 1
Shipment(Ardent33,DC5) 0
Shipment(Ardent33,DC6) 0
Shipment(Ardent33,DC7) 0
Shipment(Ardent33,DC8) 0
Shipment(Ardent33,DC9) 1
OpenMill(Ardent34) 0
Shipment(Ardent34,DC1) 0
Shipment(Ardent34,DC10) 0
Shipment(Ardent34,DC11) 0
Shipment(Ardent34,DC12) 0
Shipment(Ardent34,DC13) 0
Shipment(Ardent34,DC14) 0
Shipment(Ardent34,DC15) 0
Shipment(Ardent34,DC16) 0
Shipment(Ardent34,DC2) 0
Shipment(Ardent34,DC3) 0
Shipment(Ardent34,DC4) 0
Shipment(Ardent34,DC5) 0
Shipment(Ardent34,DC6) 0
Shipment(Ardent34,DC7) 0
Shipment(Ardent34,DC8) 0
Shipment(Ardent34,DC9) 0
OpenMill(Ardent35) 1
Shipment(Ardent35,DC1) 0
Shipment(Ardent35,DC10) 0
Shipment(Ardent35,DC11) 0
Shipment(Ardent35,DC12) 0
Shipment(Ardent35,DC13) 0
Shipment(Ardent35,DC14) 0
Shipment(Ardent35,DC15) 0
Shipment(Ardent35,DC16) 0
Shipment(Ardent35,DC2) 0
Shipment(Ardent35,DC3) 1
Shipment(Ardent35,DC4) 0
Shipment(Ardent35,DC5) 1
Shipment(Ardent35,DC6) 0
Shipment(Ardent35,DC7) 0
Shipment(Ardent35,DC8) 0
Shipment(Ardent35,DC9) 0
OpenMill(Ardent36) 0
Shipment(Ardent36,DC1) 0
Shipment(Ardent36,DC10) 0
Shipment(Ardent36,DC11) 0
Shipment(Ardent36,DC12) 0
Shipment(Ardent36,DC13) 0
Shipment(Ardent36,DC14) 0
Shipment(Ardent36,DC15) 0
Shipment(Ardent36,DC16) 0
Shipment(Ardent36,DC2) 0
Shipment(Ardent36,DC3) 0
Shipment(Ardent36,DC4) 0
Shipment(Ardent36,DC5) 0
Shipment(Ardent36,DC6) 0
Shipment(Ardent36,DC7) 0
Shipment(Ardent36,DC8) 0
Shipment(Ardent36,DC9) 0
OpenMill(Ardent37) 0
Shipment(Ardent37,DC1) 0
Shipment(Ardent37,DC10) 0
Shipment(Ardent37,DC11) 0
Shipment(Ardent37,DC12) 0
Shipment(Ardent37,DC13) 0
Shipment(Ardent37,DC14) 0
Shipment(Ardent37,DC15) 0
Shipment(Ardent37,DC16) 0
Shipment(Ardent37,DC2) 0
Shipment(Ardent37,DC3) 0
Shipment(Ardent37,DC4) 0
Shipment(Ardent37,DC5) 0
Shipment(Ardent37,DC6) 0
Shipment(Ardent37,DC7) 0
Shipment(Ardent37,DC8) 0
Shipment(Ardent37,DC9) 0
OpenMill(Ardent38) 1
Shipment(Ardent38,DC1) 0
Shipment(Ardent38,DC10) 0
Shipment(Ardent38,DC11) 0
Shipment(Ardent38,DC12) 1
Shipment(Ardent38,DC13) 0
Shipment(Ardent38,DC14) 1
Shipment(Ardent38,DC15) 1
Shipment(Ardent38,DC16) 0
Shipment(Ardent38,DC2) 0
Shipment(Ardent38,DC3) 0
Shipment(Ardent38,DC4) 0
Shipment(Ardent38,DC5) 0
Shipment(Ardent38,DC6) 0
Shipment(Ardent38,DC7) 0
Shipment(Ardent38,DC8) 0
Shipment(Ardent38,DC9) 0
